NAME : kroE100.tour
COMMENT : Optimum tour for kroE100.tsp (Length 22068)
TYPE : TOUR
DIMENSION : 100
TOUR_SECTION
39
22
33
38
68
48
90
42
5
8
65
97
25
54
45
99
17
84
40
35
88
63
58
32
12
76
7
21
74
1
83
73
16
71
61
14
52
44
72
89
81
79
26
46
3
47
69
51
98
59
95
36
28
23
64
62
56
15
20
49
50
60
10
80
57
9
31
66
30
93
91
55
13
75
41
87
67
27
92
82
4
2
11
96
85
77
37
70
6
34
53
78
100
29
24
18
94
19
86
43
-1
EOF
